* #variable= 25 #constraint= 1 #product= 23 sizeproduct= 46
min: +8 x1 x3 -4 x1 -8 x3 +8 x2 x4 -4 x2 -8 x4 +8 x3 x5 -8 x5 +8 x4 x6 -8 x6 +8 x5 x7 -8 x7 +8 x6 x8 -8 x8 +8 x7 x9 -8 x9 +8 x8 x10 -8 x10 +8 x9 x11 -8 x11 +8 x10 x12 -8 x12 +8 x11 x13 -8 x13 +8 x12 x14 -8 x14 +8 x13 x15 -8 x15 +8 x14 x16 -8 x16 +8 x15 x17 -8 x17 +8 x16 x18 -8 x18 +8 x17 x19 -8 x19 +8 x18 x20 -8 x20 +8 x19 x21 -8 x21 +8 x20 x22 -8 x22 +8 x21 x23 -8 x23 +8 x22 x24 -4 x24 +8 x23 x25 -4 x25 ;
+1 x1 >= 0 ;
